zaligvinder/models/DRE/data796/9665.smt2
(declare-fun x () String)

(assert (str.in.re x (re.++  (str.to.re "\x4e01") (re.++  (str.to.re "\x4e01") (re.++  (str.to.re "\x4e02") (re.++  (str.to.re "\x4e03") (re.++ (re.*  (str.to.re "\x4e04") ) (re.++  (str.to.re "\x4e01") (re.++  (str.to.re "\x4e02") (re.++  (str.to.re "\x4e03") (re.++ (re.*  (str.to.re "\x4e04") ) (re.++  (str.to.re "\x4e01") (re.++  (str.to.re "\x4e02") (re.++  (str.to.re "\x4e03") (re.++ (re.*  (str.to.re "\x4e04") ) (re.++  (str.to.re "\x4e01") (re.++  (str.to.re "\x4e02") (re.++  (str.to.re "\x4e03") (re.++ (re.*  (str.to.re "\x4e04") ) (re.++  (str.to.re "\x4e01") (re.++  (str.to.re "\x4e02") (re.++  (str.to.re "\x4e03") (re.++ (re.*  (str.to.re "\x4e04") ) (re.++  (str.to.re "\x4e01") (re.++  (str.to.re "\x4e02") (re.++  (str.to.re "\x4e05") (re.++  (str.to.re "\x4e03") (re.++ (re.*  (str.to.re "\x4e04") ) (re.++  (str.to.re "\x4e01") (re.++  (str.to.re "\x4e02") (re.++  (str.to.re "\x4e03") (re.++  (str.to.re "\x4e03") (re.++ (re.*  (str.to.re "\x4e04") ) (re.++  (str.to.re "\x4e01") (re.++  (str.to.re "\x4e02") (re.++  (str.to.re "\x4e03") (re.++  (str.to.re "\x4e03") (re.++ (re.*  (str.to.re "\x4e04") ) (re.++  (str.to.re "\x4e01") (re.++  (str.to.re "\x4e02") (re.++  (str.to.re "\x4e03") (re.++  (str.to.re "\x4e03") (re.++ (re.*  (str.to.re "\x4e04") ) (re.++  (str.to.re "\x4e01") (re.++  (str.to.re "\x4e02") (re.++  (str.to.re "\x4e03") (re.++ (re.*  (str.to.re "\x4e04") ) (re.++  (str.to.re "\x4e01") (re.++  (str.to.re "\x4e02") (re.++  (str.to.re "\x4e03") (re.++ (re.*  (str.to.re "\x4e04") ) (re.++  (str.to.re "\x4e01") (re.++  (str.to.re "\x4e02") (re.++  (str.to.re "\x4e03") (re.++  (str.to.re "\x4e03") (re.++ (re.*  (str.to.re "\x4e04") ) (re.++  (str.to.re "\x4e01") (re.++  (str.to.re "\x4e02") (re.++  (str.to.re "\x4e03") (re.++  (str.to.re "\x4e03") (re.++ (re.*  (str.to.re "\x4e04") ) (re.++  (str.to.re "\x4e01") (re.++  (str.to.re "\x4e02") (re.++  (str.to.re "\x4e03") (re.++  (str.to.re "\x4e03") (re.++ (re.*  (str.to.re "\x4e04") ) (re.++  (str.to.re "\x4e01") (re.++  (str.to.re "\x4e02") (re.++  (str.to.re "\x4e03") (re.++  (str.to.re "\x4e03") (re.++ (re.*  (str.to.re "\x4e04") ) (re.++  (str.to.re "\x4e01") (re.++  (str.to.re "\x4e02") (re.++  (str.to.re "\x4e03") (re.++  (str.to.re "\x4e03") (re.++ (re.*  (str.to.re "\x4e04") ) (re.++  (str.to.re "\x4e01") (re.++  (str.to.re "\x4e02") (re.++  (str.to.re "\x4e03") (re.++ (re.*  (str.to.re "\x4e04") ) (re.++  (str.to.re "\x4e01") (re.++  (str.to.re "\x4e02") (re.++  (str.to.re "\x4e03") (re.++  (str.to.re "\x4e03") (re.++ (re.*  (str.to.re "\x4e04") ) (re.++  (str.to.re "\x4e01") (re.++  (str.to.re "\x4e02") (re.++  (str.to.re "\x4e03") (re.++  (str.to.re "\x4e03") (re.++ (re.*  (str.to.re "\x4e04") ) (re.++  (str.to.re "\x4e01") (re.++  (str.to.re "\x4e02") (re.++  (str.to.re "\x4e03") (re.++  (str.to.re "\x4e03") (re.++ (re.*  (str.to.re "\x4e04") ) (re.++  (str.to.re "\x4e01") (re.++  (str.to.re "\x4e02") (re.++  (str.to.re "\x4e03") (re.++ (re.*  (str.to.re "\x4e04") ) (re.++  (str.to.re "\x4e01") (re.++  (str.to.re "\x4e02") (re.++  (str.to.re "\x4e03") (re.++ (re.*  (str.to.re "\x4e04") ) (re.++  (str.to.re "\x4e01") (re.++  (str.to.re "\x4e02") (re.++  (str.to.re "\x4e03") (re.++ (re.*  (str.to.re "\x4e04") ) (re.++  (str.to.re "\x4e01") (re.++  (str.to.re "\x4e02") (re.++  (str.to.re "\x4e03") (re.++ (re.*  (str.to.re "\x4e04") ) (re.++  (str.to.re "\x4e01") (re.++  (str.to.re "\x4e02") (re.++  (str.to.re "\x4e03") (re.++ (re.*  (str.to.re "\x4e04") ) (re.++  (str.to.re "\x4e01") (re.++  (str.to.re "\x4e02") (re.++  (str.to.re "\x4e03") (re.++ (re.*  (str.to.re "\x4e04") ) (re.++  (str.to.re "\x4e01") (re.++  (str.to.re "\x4e02") (re.++  (str.to.re "\x4e03") (re.++ (re.*  (str.to.re "\x4e04") ) (re.++  (str.to.re "\x4e01") (re.++  (str.to.re "\x4e02") (re.++ (re.opt  (str.to.re "\x4e06") ) (re.++  (str.to.re "\x4e03") (re.++ (re.*  (str.to.re "\x4e04") ) (re.++  (str.to.re "\x4e01") (re.++  (str.to.re "\x4e02") (re.++ (re.opt  (str.to.re "\x4e06") ) (re.++  (str.to.re "\x4e03") (re.++ (re.*  (str.to.re "\x4e04") ) (re.++  (str.to.re "\x4e01") (re.++  (str.to.re "\x4e02") (re.++  (str.to.re "\x4e03") (re.++ (re.*  (str.to.re "\x4e04") ) (re.++  (str.to.re "\x4e01") (re.++  (str.to.re "\x4e02") (re.++  (str.to.re "\x4e03") (re.++ (re.*  (str.to.re "\x4e04") ) (re.++  (str.to.re "\x4e01") (re.++  (str.to.re "\x4e02") (re.++ (re.opt  (str.to.re "\x4e05") ) (re.++  (str.to.re "\x4e03") (re.++ (re.*  (str.to.re "\x4e04") ) (re.++  (str.to.re "\x4e01") (re.++  (str.to.re "\x4e02") (re.++ (re.opt  (str.to.re "\x4e05") ) (re.++  (str.to.re "\x4e03") (re.++ (re.*  (str.to.re "\x4e04") ) (re.++  (str.to.re "\x4e01") (re.++  (str.to.re "\x4e02") (re.++ (re.opt  (str.to.re "\x4e05") ) (re.++  (str.to.re "\x4e03") (re.++ (re.*  (str.to.re "\x4e04") ) (re.++  (str.to.re "\x4e01") (re.++  (str.to.re "\x4e02") (re.++ (re.opt  (str.to.re "\x4e05") ) (re.++  (str.to.re "\x4e03") (re.++ (re.*  (str.to.re "\x4e04") ) (re.++  (str.to.re "\x4e01") (re.++  (str.to.re "\x4e07") (re.++  (str.to.re "\x4e08") (re.++ (re.opt  (str.to.re "\x4e05") ) (re.++  (str.to.re "\x4e03") (re.++ (re.*  (str.to.re "\x4e04") ) (re.++  (str.to.re "\x4e01") (re.++  (str.to.re "\x4e02") (re.++  (str.to.re "\x4e08") (re.++ (re.opt  (str.to.re "\x4e05") ) (re.++  (str.to.re "\x4e03") (re.++ (re.*  (str.to.re "\x4e04") )  (str.to.re "\x4e09"))))))))))))))))))))))))))))))))))))))))))))))))))))))))))))))))))))))))))))))))))))))))))))))))))))))))))))))))))))))))))))))))))))))))))))))))))))))))))))))))))))))))))))))
(assert (str.in.re x (re.++ (re.opt  (re.++ (re.*  (re.union  (str.to.re "\x4e01") (re.union  (str.to.re "\x4e02") (re.union  (str.to.re "\x4e03") (re.union  (str.to.re "\x4e04") (re.union  (str.to.re "\x4e05") (re.union  (str.to.re "\x4e06") (re.union  (str.to.re "\x4e07") (re.union  (str.to.re "\x4e08")  (str.to.re "\x4e09"))))))))) )  (re.union  (re.++  (re.union  (str.to.re "\x4e0a") (re.union  (str.to.re "\x4e0b")  (str.to.re "\x4e0c"))) (re.++ (re.*  (re.union  (str.to.re "\x4e0a") (re.union  (str.to.re "\x4e0b") (re.union  (str.to.re "\x4e0c") (re.union  (str.to.re "\x4e01") (re.union  (str.to.re "\x4e02") (re.union  (str.to.re "\x4e03") (re.union  (str.to.re "\x4e04") (re.union  (str.to.re "\x4e05") (re.union  (str.to.re "\x4e06") (re.union  (str.to.re "\x4e07") (re.union  (str.to.re "\x4e08")  (str.to.re "\x4e09")))))))))))) ) (re.++ (re.+  (re.++  (str.to.re "\x4e0d") (re.*  (re.union  (str.to.re "\x4e01") (re.union  (str.to.re "\x4e02") (re.union  (str.to.re "\x4e03") (re.union  (str.to.re "\x4e04") (re.union  (str.to.re "\x4e05") (re.union  (str.to.re "\x4e06") (re.union  (str.to.re "\x4e07") (re.union  (str.to.re "\x4e08")  (str.to.re "\x4e09"))))))))) )) ) (re.*  (re.++  (re.union  (str.to.re "\x4e0b")  (str.to.re "\x4e0c")) (re.*  (re.union  (str.to.re "\x4e01") (re.union  (str.to.re "\x4e02") (re.union  (str.to.re "\x4e03") (re.union  (str.to.re "\x4e04") (re.union  (str.to.re "\x4e05") (re.union  (str.to.re "\x4e06") (re.union  (str.to.re "\x4e07") (re.union  (str.to.re "\x4e08")  (str.to.re "\x4e09"))))))))) )) ))))  (re.++ (re.+  (re.++  (str.to.re "\x4e0d") (re.*  (re.union  (str.to.re "\x4e01") (re.union  (str.to.re "\x4e02") (re.union  (str.to.re "\x4e03") (re.union  (str.to.re "\x4e04") (re.union  (str.to.re "\x4e05") (re.union  (str.to.re "\x4e06") (re.union  (str.to.re "\x4e07") (re.union  (str.to.re "\x4e08")  (str.to.re "\x4e09"))))))))) )) ) (re.*  (re.++  (re.union  (str.to.re "\x4e0a") (re.union  (str.to.re "\x4e0b")  (str.to.re "\x4e0c"))) (re.*  (re.union  (str.to.re "\x4e01") (re.union  (str.to.re "\x4e02") (re.union  (str.to.re "\x4e03") (re.union  (str.to.re "\x4e04") (re.union  (str.to.re "\x4e05") (re.union  (str.to.re "\x4e06") (re.union  (str.to.re "\x4e07") (re.union  (str.to.re "\x4e08")  (str.to.re "\x4e09"))))))))) )) )))) ) (re.++ (re.*  (re.++  (re.union  (str.to.re "\x4e0e")  (str.to.re "\x4e0f")) (re.*  (re.union  (str.to.re "\x4e01") (re.union  (str.to.re "\x4e02") (re.union  (str.to.re "\x4e03") (re.union  (str.to.re "\x4e04") (re.union  (str.to.re "\x4e05") (re.union  (str.to.re "\x4e06") (re.union  (str.to.re "\x4e07") (re.union  (str.to.re "\x4e08")  (str.to.re "\x4e09"))))))))) )) ) (re.++ (re.*  (re.++  (str.to.re "\x4e10") (re.*  (re.union  (str.to.re "\x4e0b") (re.union  (str.to.re "\x4e0c") (re.union  (str.to.re "\x4e01") (re.union  (str.to.re "\x4e02") (re.union  (str.to.re "\x4e03") (re.union  (str.to.re "\x4e04") (re.union  (str.to.re "\x4e05") (re.union  (str.to.re "\x4e06") (re.union  (str.to.re "\x4e07") (re.union  (str.to.re "\x4e08")  (str.to.re "\x4e09"))))))))))) )) ) (re.++  (str.to.re "\x4e11") (re.*  (re.union  (str.to.re "\x4e11") (re.union  (str.to.re "\x4e12") (re.union  (str.to.re "\x4e13") (re.union  (str.to.re "\x4e01") (re.union  (str.to.re "\x4e02") (re.union  (str.to.re "\x4e03") (re.union  (str.to.re "\x4e04") (re.union  (str.to.re "\x4e05") (re.union  (str.to.re "\x4e06") (re.union  (str.to.re "\x4e07") (re.union  (str.to.re "\x4e08")  (str.to.re "\x4e09")))))))))))) )))))))
(check-sat)
(get-model)