zaligvinder/models/SRE/data192/9665.txt
(((h-0|(c-1.(b-2|e-3).h-4)*).(h-5|(@|(d-6|a-7.c-8)).(@|i-9.d-10)).(((b-11|e-12).c-13.c-14|d-15).(@.((((@|c-16.b-17))*|(@.(((@.((d-18|e-19))*|f-20)|h-21))*)*))*.d-22.j-23.a-24.(d-25|a-26).j-27.j-28.f-29.d-30|((j-31.a-32|(@.((((@.(i-33|f-34))*|c-35.(e-36|b-37).f-38))*|@.(a-39|(j-40.h-41)*)))*))*)|(h-42.i-43|f-44).h-45.(@.(a-46|c-47))*.((f-48|j-49))*.j-50.(a-51|i-52)).((g-53.e-54|a-55)|c-56).c-57.i-58.(i-59|h-60.c-61.j-62).i-63.a-64.b-65.d-66.((d-67.i-68.(c-69.h-70|c-71.h-72))*|g-73.d-74.g-75.g-76)|((d-77|d-78).((@|(@|(b-79|f-80.(a-81|i-82.e-83).h-84))))*.(((c-85.(a-86|(j-87|f-88)).d-89.b-90.j-91.a-92|@.(f-93.(@.(f-94|g-95))*)*.f-96.(g-97|g-98)))*)*.(f-99.c-100.i-101.(a-102|h-103.g-104).(@.((@|(@|@.(b-105|f-106)))|(b-107.f-108.c-109)*)|(c-110.b-111.d-112.g-113|j-114.b-115).(@|c-116.(j-117|c-118)))|c-119).a-120.(j-121.j-122.(((b-123|(h-124.g-125)*))*)*.(@|(@|((@|@.(@|@.(@|@.((j-126|a-127))*)).h-128))*.b-129).e-130.(@|b-131.g-132).i-133.f-134.(@|@.(h-135|b-136)).(@.(@.(a-137|c-138)|e-139).(@|@.(g-140.i-141)*))*))*.d-142.(@|b-143.e-144).(j-145|d-146.j-147).i-148|e-149.a-150.c-151.(j-152.j-153|((@|(c-154.j-155.h-156.(i-157.f-158.(@|(@.(@|((@|h-159.j-160))*))*))*)*.((@.(c-161|a-162))*|j-163.a-164.b-165.a-166)))*).(@|(j-167.c-168)*))).((@|(@|h-169.i-170).(@|(f-171|c-172.h-173)).g-174.a-175.f-176.i-177.d-178.e-179).(c-180.e-181.j-182.h-183.((@.(@|g-184.(@|@.(@|((@|a-185.i-186))*)))|@.(g-187|e-188).i-189.d-190)|@.(d-191|d-192))|(@.(i-193.e-194|b-195)|j-196.(@.(c-197.f-198)*.(b-199.b-200.(@|@.(c-201|j-202)))*)*.a-203.a-204.(((g-205.j-206.g-207.j-208.h-209)*)*|d-210).f-211.b-212.i-213.f-214).a-215.h-216.i-217.a-218.a-219).((j-220|(@|((a-221|f-222))*.c-223)).(((@|(g-224|i-225))|(b-226|j-227)))*|j-228.d-229)|((@.(@|i-230.e-231)|a-232.c-233).(((e-234|d-235.b-236)|f-237).(c-238|f-239)|e-240.(@.(f-241.j-242|c-243).(@|f-244.a-245.c-246).(@.(j-247.c-248)*)*.d-249)*)|b-250.g-251)).((@|e-252.b-253)|@.((@|@.(f-254.f-255|j-256))|a-257).c-258.d-259.(i-260.(@|e-261.c-262.f-263.c-264.f-265.g-266))*).(e-267|i-268).(@.(@.(f-269|i-270))*.b-271.g-272.(@|(h-273.c-274.e-275)*).(g-276.(e-277|e-278).((@|b-279.g-280.e-281))*.h-282)*.g-283)*.(((h-284.d-285.(@|@.(h-286.f-287|d-288)).(@.(@|(@.(@|c-289.g-290))*).(((h-291|(d-292|j-293).(@.(@|(i-294.b-295)*)|h-296)))*)*|(((@.(c-297.e-298|h-299)|f-300).(d-301|c-302))*|d-303.c-304.(@|i-305.b-306))))*|((h-307.g-308)*|((e-309|(h-310.b-311.d-312)*))*))|(@.(@|j-313.h-314.e-315.a-316))*.(@|@.(@|(@|b-317.e-318))).(@.(@|((@|g-319.h-320))*).g-321)*.(@|(j-322|(i-323.b-324.j-325.h-326)*).g-327.(i-328.f-329|a-330))).b-331.(b-332.e-333|d-334).i-335.(c-336.(d-337|j-338.j-339).c-340|c-341).((((d-342.e-343.h-344.h-345.i-346.g-347.a-348.j-349.b-350|@.(@|@.(b-351|(h-352.a-353)*)).h-354.(e-355.j-356.i-357)*.f-358.e-359)|(@.(g-360|e-361).i-362)*.e-363)|(c-364|((((a-365|(d-366.d-367|j-368)).c-369|j-370.j-371.b-372)|((@|((@.(i-373|j-374.b-375))*|@.(@|@.(@|@.(i-376|c-377)))))|f-378.g-379.(a-380.c-381.(@|c-382.b-383)|h-384).(@|e-385.g-386).g-387)))*).((@.(@|d-388.f-389).(@|(((d-390|b-391.h-392))*)*).a-393.e-394.c-395.f-396.((@|(b-397.c-398)*.g-399))*.(g-400.h-401.j-402)*.d-403.e-404.d-405.((@|(a-406|j-407.f-408))|e-409)|@.(@|(b-410|c-411)).e-412).(h-413.j-414.g-415|((i-416.i-417.i-418.i-419.(@|d-420.(j-421.a-422|j-423))|j-424).(@|(d-425|b-426))|c-427))|d-428.(c-429|g-430.g-431).i-432.c-433.b-434.b-435.g-436.f-437).e-438)|((h-439|@.((@|(e-440|c-441)))*)|j-442.(@|d-443.f-444).c-445.(e-446|h-447)).(@|(@|i-448.(((e-449.d-450)*)*)*)).(a-451|e-452.a-453).(@|@.(@|(i-454.c-455|i-456))).b-457).((@|(g-458.e-459.b-460|((@|j-461.e-462).i-463)*))|(((@|(((@|h-464.(@.(@.(b-465|f-466).b-467)*)*.c-468.a-469))*|@.(@|(i-470|j-471.a-472)).(c-473|c-474)))|@.(e-475|f-476))|(@|@.(j-477|(e-478|e-479)))).(@|(@|(c-480|f-481))).(h-482|e-483).d-484.(a-485|j-486).j-487.j-488.i-489.f-490.b-491).((i-492.(d-493|@.(e-494.d-495|e-496)).e-497|e-498.(@|(i-499|f-500)).b-501.a-502.((((@|@.(@|(@.(f-503|b-504))*)))*)*|e-505)))*.(((e-506|e-507).((((@|(j-508|d-509)))*|(@.(f-510|f-511))*))*.(((@|(i-512|@.(@.(@|@.(f-513|h-514)))*.i-515))|((@|(i-516|(@.(@|(@|(@|((g-517|d-518))*))))*)).g-519.e-520)*.c-521.(@|(a-522.j-523)*).c-524)|c-525)|h-526.f-527.f-528.(j-529|i-530).c-531).j-532.g-533.i-534.(((((f-535|f-536).f-537)*)*)*.(i-538|d-539))*.d-540.h-541|(j-542.c-543.j-544.i-545.d-546.g-547.(@|@.(f-548.a-549)*).((f-550|j-551.c-552).(g-553|((a-554|e-555).a-556)*).(((@|(@|e-557.h-558))|h-559)|c-560)|f-561.g-562.(c-563.(@.(@|@.(i-564|(b-565.h-566)*)).a-567|c-568.f-569).a-570.(j-571|g-572))*).(@.((e-573.g-574.(j-575|h-576).c-577.(c-578|j-579)|(@|f-580.f-581).b-582)|((@|(@.(i-583.c-584)*|(d-585|((@|@.(@|(i-586|f-587)))|b-588)))))*))*|(@.((@|f-589.((c-590.b-591)*|@.(i-592|@.(@|((@|(@.(f-593|g-594))*))*))).i-595)|f-596.(f-597|b-598)).(i-599|b-600.(@|@.(@|@.(((@|(i-601|d-602)))*)*))).(c-603|((e-604.j-605.h-606|a-607))*)|j-608.(d-609.((h-610|i-611))*|(h-612|b-613))).(h-614|i-615)))|(b-616|e-617.b-618).(i-619.(i-620|c-621).d-622.f-623.(@.((@|h-624.h-625))*|g-626))*.g-627.(((@|j-628.h-629)|(((@|f-630.j-631)|g-632))*)|j-633).(i-634.f-635.((c-636|f-637)|((j-638|g-639)|@.(c-640.d-641)*.g-642).((d-643|(@|i-644.e-645)))*).(j-646|@.(@|j-647.e-648.a-649)).((d-650.(@.(@.(g-651|h-652)|b-653)|(e-654|d-655)).h-656.(g-657.i-658)*.(i-659.e-660)*.c-661.f-662.b-663.e-664.(@|(@|(@|(j-665.d-666)*))).h-667.(@|(e-668|h-669).f-670).a-671.e-672.(@.(@|(a-673|e-674))|f-675)|g-676)|(@.(f-677|i-678)|((h-679|a-680).d-681)*.g-682.a-683.h-684).(@|@.(c-685|h-686)).(@.(h-687|j-688)|j-689).(j-690.((g-691|(@|h-692.e-693)).(j-694|(@|e-695.e-696))|d-697)|@.(f-698.a-699|f-700)).f-701.(j-702|e-703).g-704.(@.(i-705|j-706).(h-707.e-708.i-709.h-710|((@|(h-711|(@|a-712.c-713).g-714.i-715)))*))*.g-716.e-717.c-718.(@|(b-719|h-720)).a-721.(d-722|d-723).a-724.(c-725|g-726).f-727.(@|(b-728|d-729))).h-730.j-731.g-732.(@|i-733.g-734).(b-735.d-736.j-737|@.(((@|i-738.f-739))*)*)|(@|(c-740|(@|g-741.j-742.d-743.g-744.(e-745.f-746.g-747)*.(d-748|d-749.d-750)))).(c-751|i-752).h-753.d-754.a-755.(@|@.(f-756|j-757)))).((a-758.(@|@.(a-759.j-760)*).(g-761|i-762).((h-763|c-764))*.(b-765.g-766.c-767.f-768|c-769)|(g-770.(((@|(((f-771|i-772))*|(@|@.(@|@.(i-773.i-774)*.j-775.b-776)).d-777)).j-778.f-779.f-780|(j-781|d-782).e-783).e-784|@.(@|@.(f-785|a-786))).a-787.((@|j-788.(@|(b-789|d-790)).(a-791|i-792)))*|((@|@.(i-793.a-794)*.b-795)|((h-796.h-797.(g-798.(@|@.(@|(@|f-799.c-800))).(@|(f-801|a-802)).(@.(@|a-803.h-804)|((@|@.(f-805.d-806)*))*).(b-807|h-808.(@|d-809.h-810)).(j-811.b-812|((h-813|a-814)|c-815).e-816)|(g-817|@.(@|((a-818|e-819))*).((a-820.i-821|j-822.((@|@.(h-823|j-824)).b-825)*))*))|(f-826.j-827.i-828.a-829)*))*.(i-830.d-831|((@.(g-832|f-833))*|a-834)).(e-835|g-836).j-837)).i-838.h-839.j-840)|(((@.(@|@.(i-841|e-842)).h-843|((j-844.(@|(g-845|f-846)))*|e-847).(a-848.g-849)*)|(@.(@.(@|d-850.j-851))*.(c-852|h-853)|(h-854.((b-855|j-856))*.g-857.(c-858.b-859.(f-860.a-861.h-862)*.(e-863.f-864.f-865)*.(h-866.(j-867|a-868))*|h-869).(h-870|h-871).(@|((d-872|h-873))*).j-874.i-875.(i-876|d-877).(d-878|b-879).h-880.(e-881|g-882)|@.(((b-883.(@|a-884.a-885.g-886).e-887.c-888.j-889|@.(c-890.a-891)*.j-892)|(@|b-893.(@|i-894.i-895))))*.(@|((e-896|i-897)|(b-898|h-899)).h-900.f-901.c-902)))).((h-903.a-904.c-905.c-906.j-907.a-908)*|((c-909.i-910)*.e-911|e-912.a-913.e-914.((((@.(((@|(@|@.(e-915|c-916))))*)*)*.i-917)*|e-918).(@|(@.(@|a-919.f-920)|i-921)).(((@|(@.(b-922|a-923))*).h-924)*|(f-925|(@|(h-926|d-927))))|e-928.d-929.((a-930|@.(a-931.i-932)*))*))).(h-933.(@|i-934.h-935).(@|(b-936|((@|j-937.b-938).d-939|j-940.a-941.(@|@.(f-942|c-943)))))|(f-944|(j-945.i-946|g-947).h-948).d-949.(@|g-950.i-951).(a-952.a-953.c-954.(@|@.((g-955|@.(g-956|j-957))|(e-958.a-959)*).((h-960.h-961)*)*)|d-962.j-963)))*)
((f-0|(c-1.b-2.a-3.b-4|a-5.i-6)).j-7.a-8.((((d-9|j-10)|(@.(d-11|((@|c-12.b-13))*.c-14)|c-15))|a-16.f-17.(e-18.h-19)*.(h-20|c-21))|((j-22.b-23|@.((@.(a-24.d-25)*.g-26.a-27.(j-28.(b-29|j-30)|f-31).(@.(@|@.(g-32.b-33)*.g-34))*)*|c-35.(@|(i-36|b-37))).f-38).((b-39.(@|((@.((f-40|c-41)|b-42))*)*)|j-43.(@|(@|c-44.e-45))))*)*).j-46.(((g-47.(i-48.e-49)*|(e-50.i-51|((g-52.d-53.b-54|j-55))*.(@.(j-56.g-57)*)*.(j-58.d-59)*)).(c-60.(e-61.j-62)*.a-63.d-64)*.i-65.(c-66.a-67|(b-68|e-69)).(b-70.e-71|e-72.(((f-73.i-74)*)*)*).((f-75.e-76.b-77)*.(i-78.b-79)*.(@|@.(j-80.c-81)*.(i-82|g-83).b-84.g-85.c-86.g-87.d-88).h-89|(d-90|a-91.d-92)).(@|((@|i-93.f-94).d-95)*).(j-96.(j-97|g-98)|d-99.d-100).(c-101|(g-102.j-103.f-104|e-105)).e-106.d-107.g-108.i-109.g-110.d-111.c-112.(@|(@|(@.(@|@.(@|h-113.b-114))|(@|(f-115.h-116)*))))|(@.(e-117|g-118.e-119))*.(((h-120.i-121.f-122.(f-123.h-124|j-125).f-126.h-127.f-128.(@|e-129.a-130.i-131.j-132).((f-133|i-134))*.j-135)*)*.i-136.(g-137|f-138))*).(((@|((b-139|b-140)|a-141.b-142)).(c-143|i-144).a-145.e-146|(h-147|g-148).h-149).j-150.a-151.g-152.((f-153.j-154|(@|(d-155.a-156|a-157))))*.i-158|(((((g-159|h-160)|((e-161|(@|(f-162|a-163))).i-164|e-165.(h-166|e-167)).(i-168|e-169).b-170)|((@|b-171.(i-172.i-173)*).(e-174.c-175.a-176)*)*))*|b-177.a-178).(@|c-179.f-180).f-181.c-182.(e-183|b-184.b-185.i-186.a-187.h-188.j-189.((@.(h-190|(@|a-191.i-192.g-193)))*|(j-194|g-195))).i-196.b-197).((@|h-198.g-199).(@.((b-200.h-201)*|a-202).(j-203|j-204)|j-205).(g-206.h-207.c-208|j-209).((@.(@|i-210.e-211).(@|(@.(j-212|h-213.h-214))*)|f-215)|h-216.d-217)|f-218.(@.(@.((d-219|g-220))*)*.f-221)*.(@|(i-222.(@|f-223.f-224).d-225)*).d-226.i-227.h-228.f-229.g-230.a-231.(@|(@|b-232.b-233.h-234))).(d-235|(((h-236|i-237.d-238))*.d-239.b-240|(@|((@|((@|g-241.g-242).f-243|@.(j-244|b-245))))*)).(j-246.j-247)*.c-248.(@|d-249.j-250).((j-251.e-252.a-253.(@|((b-254.g-255)*)*).i-256.d-257.h-258.(g-259|((e-260|@.((c-261.(c-262.e-263|d-264)|j-265))*)|f-266))|(j-267.(b-268|g-269).i-270|(a-271.b-272.f-273.g-274|e-275))).d-276.h-277.(@|@.(@|g-278.h-279).c-280.(g-281|c-282)).((@|@.(h-283|e-284))|e-285))*).((@|c-286.c-287).c-288.i-289|(@.(d-290|@.(h-291|a-292)).((@|((a-293|b-294))*)|(@|(@|a-295.f-296).g-297)).c-298.(((j-299|g-300)|j-301.((c-302|b-303))*).g-304|c-305).(((b-306.(h-307.b-308.i-309)*|(c-310|d-311)).a-312)*.(@|g-313.c-314.b-315.g-316.d-317.(@|(j-318|j-319).b-320)))*)*).(((e-321|(b-322.j-323)*)|(d-324.(@|((b-325|c-326))*).(j-327|g-328))*)|(@|@.(@|(j-329.d-330)*))).j-331.((@|@.(@|(@|a-332.i-333)))|a-334.(j-335.g-336|g-337)).((@.(e-338.c-339|((i-340.d-341.g-342|h-343.c-344))*.j-345).(@|(((@|e-346.h-347))*)*).b-348.e-349.c-350.h-351.(((@|((@.(@|(c-352|e-353))|a-354).g-355)*.b-356).i-357.a-358.a-359.((@|f-360.d-361)|(g-362|j-363.g-364.a-365)).(b-366.g-367.(@|(j-368|(c-369|e-370.(@|@.(d-371|g-372)).i-373))).((e-374|d-375))*.b-376.(b-377|(g-378|(@.(j-379.c-380)*|e-381))).(f-382|j-383).e-384.d-385)*.a-386.(f-387|d-388).i-389.h-390.j-391.(@|(@|(h-392|g-393)))|(j-394|b-395.d-396.h-397.j-398.(f-399.a-400|@.(@|((@|(@|(a-401.i-402)*))|f-403))).(b-404|c-405).(((@.(@|h-406.b-407))*)*|e-408)).g-409.(@|(@|(i-410|b-411))).(f-412|i-413.f-414.(c-415.b-416)*).(@.(@|b-417.b-418).d-419|((h-420|e-421)|((@|j-422.a-423))*)).(@|h-424.e-425)).(a-426|@.(@|@.(((@|b-427.e-428))*)*)).c-429.(@|(a-430.c-431)*).j-432.(@|(i-433|c-434)))*|@.(@|j-435.h-436).i-437.a-438))*|b-439.c-440.d-441.j-442.(@.(e-443|f-444).i-445.f-446)*.e-447.((f-448.j-449.(a-450.a-451)*.(j-452.d-453.d-454.j-455.b-456)*|j-457.g-458).((d-459|e-460)|(d-461|(@|(@|i-462.h-463).b-464))))*.((((@|(@|i-465.j-466).e-467.j-468))*)*|((@|(@|@.(j-469|e-470)))|e-471).(i-472.f-473.f-474)*).a-475.(b-476.c-477.j-478)*.a-479.i-480.(((@|(d-481|b-482)))*)*.j-483.(@|e-484.h-485.((((h-486|h-487))*)*)*).((@|a-488.((@.(g-489|(@|h-490.e-491))|d-492))*).(@.((a-493|i-494))*|h-495))*.c-496.(@|@.(b-497|f-498).h-499.(g-500|h-501)).(a-502|g-503).h-504.(g-505.(e-506|e-507.c-508).b-509.(g-510.g-511.((d-512|g-513))*|e-514.e-515.b-516.i-517.g-518.f-519.h-520).((((@|h-521.j-522).g-523.(@|j-524.e-525).h-526.(((((@.(f-527|b-528).b-529)*)*)*)*.((g-530|b-531.g-532))*|a-533.c-534.e-535).(@.(f-536|a-537.f-538)|b-539.(h-540|b-541)).c-542)*)*|@.(@.(f-543|i-544))*).(@.(@|a-545.d-546).a-547.(@|j-548.h-549))*)*.(h-550.(a-551.(c-552.f-553.a-554|f-555))*.(e-556|g-557)|(c-558|h-559).e-560.(@|(f-561|a-562)).(h-563|d-564).c-565.(g-566|(h-567.(@|(@|a-568.i-569)))*)).(@|(@|@.(@.((@|(i-570.d-571)*))*)*).h-572.(d-573|b-574.d-575.(j-576|f-577)).e-578.h-579))|(b-580.f-581.h-582.c-583)*.b-584.c-585.(e-586|d-587).f-588.(c-589.e-590|h-591).((@|h-592.f-593)|a-594).(@.(h-595.(c-596|e-597))*.h-598.d-599|c-600.g-601.(f-602|c-603).(j-604|(i-605|j-606))).(e-607.j-608|@.((@|(h-609|b-610)).g-611|(@.(h-612.j-613)*|((@|(@.(f-614|d-615)|i-616))|(c-617|a-618.(d-619.d-620|e-621.a-622.f-623).d-624.f-625))))).(f-626|d-627).(@|j-628.b-629).(j-630|(f-631|d-632)).(@.(@|j-633.(d-634|(f-635|a-636))))*.f-637.h-638.b-639.(@|b-640.((g-641|(@|(i-642|i-643)))|f-644)))
